NAME : random1075800
COMMENT: random generated with id 1075800
TYPE : TSP
DIMENSION : 21
EDGE_WEIGHT_TYPE : EUC_2D
NODE_COORD_SECTION
1 16.790018 2.365315
2 6.354393 3.750501
3 2.864185 5.234377
4 14.509621 18.639443
5 3.801369 6.388601
6 11.117466 16.629163
7 9.344946 13.958437
8 18.552710 14.215203
9 6.073263 8.181505
10 17.050729 12.888361
11 18.212522 11.589959
12 2.213122 16.891789
13 13.476965 4.242971
14 13.135001 5.910137
15 10.415828 12.991703
16 3.412186 7.205846
17 15.357018 9.766579
18 10.956346 18.221203
19 15.000956 5.465967
20 16.860646 18.802325
21 11.854568 7.978112
EOF
